NAME          
ROWS
 N  OBJ
 L  c1
COLUMNS
    MARKER    'MARKER'                 'INTORG'
    x[1]      c1        106
    x[1]      OBJ       -237
    x[2]      c1        874
    x[2]      OBJ       -745
    x[3]      c1        842
    x[3]      OBJ       -612
    x[4]      c1        891
    x[4]      OBJ       -658
    x[5]      c1        500
    x[5]      OBJ       -114
    x[6]      c1        481
    x[6]      OBJ       -99
    x[7]      c1        148
    x[7]      OBJ       -847
    x[8]      c1        527
    x[8]      OBJ       -50
    x[9]      c1        291
    x[9]      OBJ       -27
    x[10]     c1        96
    x[10]     OBJ       -212
    x[11]     c1        85
    x[11]     OBJ       -328
    x[12]     c1        440
    x[12]     OBJ       -250
    x[13]     c1        870
    x[13]     OBJ       -193
    x[14]     c1        926
    x[14]     OBJ       -843
    x[15]     c1        885
    x[15]     OBJ       -219
    x[16]     c1        514
    x[16]     OBJ       -335
    x[17]     c1        935
    x[17]     OBJ       -20
    x[18]     c1        265
    x[18]     OBJ       -618
    x[19]     c1        661
    x[19]     OBJ       -503
    x[20]     c1        295
    x[20]     OBJ       -478
    x[21]     c1        267
    x[21]     OBJ       -120
    x[22]     c1        116
    x[22]     OBJ       -584
    x[23]     c1        868
    x[23]     OBJ       -976
    x[24]     c1        905
    x[24]     OBJ       -538
    x[25]     c1        829
    x[25]     OBJ       -444
    x[26]     c1        311
    x[26]     OBJ       -776
    x[27]     c1        741
    x[27]     OBJ       -647
    x[28]     c1        950
    x[28]     OBJ       -351
    x[29]     c1        350
    x[29]     OBJ       -544
    x[30]     c1        874
    x[30]     OBJ       -744
RHS
    rhs       c1        8422
RANGES
BOUNDS
 LO bounds    x[1]      0
 PL bounds    x[1]
 LO bounds    x[2]      0
 PL bounds    x[2]
 LO bounds    x[3]      0
 PL bounds    x[3]
 LO bounds    x[4]      0
 PL bounds    x[4]
 LO bounds    x[5]      0
 PL bounds    x[5]
 LO bounds    x[6]      0
 PL bounds    x[6]
 LO bounds    x[7]      0
 PL bounds    x[7]
 LO bounds    x[8]      0
 PL bounds    x[8]
 LO bounds    x[9]      0
 PL bounds    x[9]
 LO bounds    x[10]     0
 PL bounds    x[10]
 LO bounds    x[11]     0
 PL bounds    x[11]
 LO bounds    x[12]     0
 PL bounds    x[12]
 LO bounds    x[13]     0
 PL bounds    x[13]
 LO bounds    x[14]     0
 PL bounds    x[14]
 LO bounds    x[15]     0
 PL bounds    x[15]
 LO bounds    x[16]     0
 PL bounds    x[16]
 LO bounds    x[17]     0
 PL bounds    x[17]
 LO bounds    x[18]     0
 PL bounds    x[18]
 LO bounds    x[19]     0
 PL bounds    x[19]
 LO bounds    x[20]     0
 PL bounds    x[20]
 LO bounds    x[21]     0
 PL bounds    x[21]
 LO bounds    x[22]     0
 PL bounds    x[22]
 LO bounds    x[23]     0
 PL bounds    x[23]
 LO bounds    x[24]     0
 PL bounds    x[24]
 LO bounds    x[25]     0
 PL bounds    x[25]
 LO bounds    x[26]     0
 PL bounds    x[26]
 LO bounds    x[27]     0
 PL bounds    x[27]
 LO bounds    x[28]     0
 PL bounds    x[28]
 LO bounds    x[29]     0
 PL bounds    x[29]
 LO bounds    x[30]     0
 PL bounds    x[30]
ENDATA
